(declare-fun var0 () String)
(assert (str.in.re var0 (re.++ (re.+ (re.+ (re.* (re.+ (re.union (re.union (re.+ (re.union (re.union (re.+ (re.* (re.* (re.* (re.* (re.union (re.union (str.to.re "!!") (str.to.re """""")) (re.* (str.to.re "##")))))))) (re.* (re.* (re.* (re.union (re.union (re.+ (re.* (str.to.re "$$"))) (re.+ (re.union (str.to.re "%%%%") (str.to.re "&&&")))) (re.union (re.* (re.* (str.to.re "'''"))) (re.+ (re.* (str.to.re "((((("))))))))) (re.+ (re.* (re.+ (re.union (re.* (re.* (re.union (re.+ (str.to.re ")))))")) (re.union (str.to.re "**") (str.to.re "+++++"))))) (re.union (re.* (re.union (re.+ (str.to.re ",,,,,")) (re.+ (str.to.re "--")))) (re.* (re.* (re.union (str.to.re ".....") (str.to.re "////"))))))))))) (re.* (re.union (re.* (re.+ (re.+ (re.* (re.+ (re.union (re.* (re.* (str.to.re ":::::"))) (re.* (re.union (str.to.re ";;;;;") (str.to.re "<<<<<"))))))))) (re.+ (re.union (re.+ (re.+ (re.union (re.* (re.+ (re.* (str.to.re "===")))) (re.union (re.union (re.union (str.to.re ">>>>") (str.to.re "?????")) (re.* (str.to.re "@@"))) (re.union (re.union (str.to.re "[[") (str.to.re "\\\\\\")) (re.union (str.to.re "]]") (str.to.re "^^^^"))))))) (re.union (re.union (re.union (re.union (re.* (re.* (str.to.re "___"))) (re.+ (re.+ (str.to.re "`````")))) (re.+ (re.union (re.* (str.to.re "{{")) (re.* (str.to.re "|||||"))))) (re.+ (re.union (re.union (re.+ (str.to.re "}}}")) (re.+ (str.to.re "~~~~~"))) (re.union (re.union (str.to.re "00000") (str.to.re "111")) (re.* (str.to.re "222")))))) (re.* (re.+ (re.union (re.* (re.union (str.to.re "33") (str.to.re "44444"))) (re.+ (re.+ (str.to.re "555")))))))))))) (re.union (re.+ (re.+ (re.+ (re.* (re.+ (re.union (re.+ (re.+ (re.+ (re.union (str.to.re "66666") (str.to.re "77777"))))) (re.union (re.union (re.+ (re.union (str.to.re "88888") (str.to.re "99"))) (re.+ (re.+ (str.to.re "aaaa")))) (re.+ (re.union (re.+ (str.to.re "bbb")) (re.union (str.to.re "cccc") (str.to.re "ddddd"))))))))))) (re.union (re.* (re.* (re.+ (re.* (re.union (re.union (re.* (re.union (re.union (str.to.re "ee") (str.to.re "fffff")) (re.union (str.to.re "gggg") (str.to.re "hhhh")))) (re.* (re.* (re.+ (str.to.re "ii"))))) (re.+ (re.* (re.union (re.* (str.to.re "jjjjj")) (re.union (str.to.re "kk") (str.to.re "lll")))))))))) (re.+ (re.union (re.* (re.union (re.+ (re.union (re.+ (re.union (re.* (str.to.re "mmm")) (re.union (str.to.re "nn") (str.to.re "oooo")))) (re.+ (re.union (re.* (str.to.re "ppppp")) (re.+ (str.to.re "qqqqq")))))) (re.+ (re.union (re.* (re.+ (re.union (str.to.re "rrr") (str.to.re "ssss")))) (re.* (re.union (re.union (str.to.re "tttt") (str.to.re "uu")) (re.+ (str.to.re "vvvvv")))))))) (re.* (re.* (re.+ (re.+ (re.union (re.+ (re.* (str.to.re "wwwww"))) (re.* (re.* (str.to.re "xxx"))))))))))))))))) (re.union (re.+ (re.+ (re.union (re.* (re.union (re.+ (re.* (re.+ (re.union (re.* (re.* (re.* (re.* (re.* (re.union (str.to.re "00") (str.to.re "11111"))))))) (re.+ (re.union (re.union (re.+ (re.* (re.* (str.to.re "2222")))) (re.union (re.+ (re.* (str.to.re "333"))) (re.union (re.* (str.to.re "444")) (re.+ (str.to.re "55"))))) (re.union (re.+ (re.* (re.* (str.to.re "66")))) (re.+ (re.union (re.union (str.to.re "7777") (str.to.re "8888")) (re.union (str.to.re "9999") (str.to.re "aa"))))))))))) (re.+ (re.union (re.+ (re.union (re.union (re.union (re.union (re.+ (re.+ (re.* (str.to.re "bbb")))) (re.+ (re.union (re.+ (str.to.re "ccc")) (re.union (str.to.re "ddddd") (str.to.re "eee"))))) (re.* (re.+ (re.union (re.+ (str.to.re "ffff")) (re.+ (str.to.re "ggggg")))))) (re.* (re.+ (re.* (re.union (re.* (str.to.re "hhhh")) (re.* (str.to.re "iiii"))))))) (re.* (re.union (re.* (re.+ (re.union (re.union (str.to.re "jj") (str.to.re "kkkkk")) (re.* (str.to.re "llll"))))) (re.+ (re.+ (re.+ (re.* (str.to.re "mmm"))))))))) (re.union (re.+ (re.+ (re.+ (re.* (re.+ (re.union (re.+ (str.to.re "nnn")) (re.+ (str.to.re "oo")))))))) (re.union (re.+ (re.+ (re.* (re.* (re.* (re.* (str.to.re "ppppp"))))))) (re.union (re.+ (re.+ (re.* (re.+ (re.union (str.to.re "qqqqq") (str.to.re "rrrrr")))))) (re.* (re.+ (re.union (re.union (re.union (str.to.re "sssss") (str.to.re "tttt")) (re.+ (str.to.re "uu"))) (re.+ (re.+ (str.to.re "vvvv"))))))))))))) (re.* (re.* (re.union (re.union (re.union (re.* (re.union (re.* (re.+ (re.union (re.* (re.* (str.to.re "ww"))) (re.+ (re.union (str.to.re "xxx") (str.to.re "yy")))))) (re.union (re.* (re.* (re.union (re.* (str.to.re "zzz")) (re.union (str.to.re "AAA") (str.to.re "BBBBB"))))) (re.union (re.+ (re.+ (re.* (str.to.re "CCCC")))) (re.* (re.+ (re.+ (str.to.re "DDDD")))))))) (re.union (re.* (re.* (re.* (re.* (re.+ (re.* (str.to.re "EEE"))))))) (re.+ (re.* (re.+ (re.union (re.* (re.union (str.to.re "FF") (str.to.re "GG"))) (re.* (re.+ (str.to.re "HHHHH"))))))))) (re.* (re.+ (re.union (re.* (re.* (re.+ (re.union (re.+ (str.to.re "III")) (re.union (str.to.re "JJJ") (str.to.re "KKKKK")))))) (re.* (re.+ (re.+ (re.* (re.union (str.to.re "LLLL") (str.to.re "MM")))))))))) (re.* (re.* (re.* (re.* (re.union (re.+ (re.union (re.union (re.* (str.to.re "NNN")) (re.+ (str.to.re "OOO"))) (re.* (re.+ (str.to.re "PPP"))))) (re.+ (re.union (re.+ (re.union (str.to.re "QQ") (str.to.re "RR"))) (re.+ (re.* (str.to.re "SS")))))))))))))))) (re.* (re.union (re.union (re.+ (re.* (re.* (re.* (re.+ (re.+ (re.union (re.union (re.+ (re.* (re.* (re.* (str.to.re "TTTTT"))))) (re.+ (re.union (re.union (re.+ (str.to.re "UUUUU")) (re.* (str.to.re "VV"))) (re.union (re.union (str.to.re "WW") (str.to.re "XXXX")) (re.* (str.to.re "YY")))))) (re.union (re.+ (re.union (re.union (re.+ (str.to.re "ZZZZZ")) (re.+ (str.to.re "!!!!!"))) (re.union (re.union (str.to.re """""""""") (str.to.re "###")) (re.* (str.to.re "$$$$"))))) (re.+ (re.union (re.* (re.+ (str.to.re "%%%"))) (re.+ (re.* (str.to.re "&&&&"))))))))))))) (re.* (re.union (re.* (re.+ (re.* (re.* (re.union (re.* (re.+ (re.+ (re.+ (re.* (str.to.re "''")))))) (re.union (re.* (re.union (re.* (re.* (str.to.re "((((("))) (re.union (re.+ (str.to.re ")))")) (re.* (str.to.re "**"))))) (re.+ (re.* (re.union (re.* (str.to.re "++")) (re.union (str.to.re ",,,") (str.to.re "-----"))))))))))) (re.* (re.+ (re.* (re.+ (re.union (re.* (re.+ (re.* (re.* (re.union (str.to.re ".....") (str.to.re "//")))))) (re.* (re.+ (re.union (re.* (re.* (str.to.re ":::"))) (re.* (re.* (str.to.re ";;")))))))))))))) (re.union (re.union (re.+ (re.union (re.+ (re.union (re.* (re.* (re.+ (re.+ (re.union (re.union (re.union (str.to.re "<<<<") (str.to.re "==")) (re.* (str.to.re ">>"))) (re.* (re.+ (str.to.re "??")))))))) (re.union (re.union (re.+ (re.+ (re.union (re.union (re.* (str.to.re "@@@@")) (re.+ (str.to.re "[[["))) (re.+ (re.union (str.to.re "\\\\\\\\") (str.to.re "]]]]]")))))) (re.* (re.* (re.+ (re.union (re.* (str.to.re "^^^^")) (re.* (str.to.re "____"))))))) (re.* (re.+ (re.* (re.union (re.+ (re.+ (str.to.re "``"))) (re.union (re.+ (str.to.re "{{{{")) (re.union (str.to.re "|||") (str.to.re "}}}}}")))))))))) (re.+ (re.+ (re.+ (re.* (re.+ (re.union (re.+ (re.* (re.+ (str.to.re "~~")))) (re.+ (re.union (re.+ (str.to.re "00000")) (re.union (str.to.re "111") (str.to.re "222")))))))))))) (re.+ (re.* (re.* (re.+ (re.+ (re.union (re.union (re.+ (re.union (re.+ (re.* (str.to.re "333"))) (re.* (re.* (str.to.re "44"))))) (re.+ (re.+ (re.* (re.+ (str.to.re "55555")))))) (re.* (re.union (re.union (re.* (re.+ (str.to.re "6666"))) (re.+ (re.union (str.to.re "77") (str.to.re "88888")))) (re.* (re.* (re.union (str.to.re "999") (str.to.re "aaaaa"))))))))))))) (re.union (re.+ (re.+ (re.union (re.union (re.* (re.+ (re.+ (re.union (re.union (re.* (re.union (str.to.re "bbb") (str.to.re "ccc"))) (re.union (re.+ (str.to.re "ddddd")) (re.+ (str.to.re "eeee")))) (re.+ (re.+ (re.+ (str.to.re "fff")))))))) (re.union (re.+ (re.+ (re.union (re.+ (re.union (re.union (str.to.re "ggg") (str.to.re "hh")) (re.* (str.to.re "iii")))) (re.* (re.* (re.* (str.to.re "jjjj"))))))) (re.+ (re.union (re.union (re.union (re.* (re.+ (str.to.re "kk"))) (re.union (re.+ (str.to.re "ll")) (re.* (str.to.re "mm")))) (re.+ (re.* (re.* (str.to.re "nnn"))))) (re.+ (re.union (re.union (re.+ (str.to.re "oooo")) (re.* (str.to.re "pp"))) (re.+ (re.* (str.to.re "qqqqq"))))))))) (re.+ (re.union (re.* (re.union (re.+ (re.+ (re.+ (re.+ (str.to.re "rrrr"))))) (re.+ (re.* (re.union (re.+ (str.to.re "sss")) (re.* (str.to.re "ttttt"))))))) (re.* (re.union (re.* (re.union (re.+ (re.+ (str.to.re "uuu"))) (re.* (re.+ (str.to.re "vvv"))))) (re.+ (re.* (re.+ (re.* (str.to.re "ww")))))))))))) (re.+ (re.+ (re.union (re.+ (re.union (re.+ (re.+ (re.union (re.+ (re.+ (re.* (str.to.re "xxxx")))) (re.union (re.union (re.union (str.to.re "yyyyy") (str.to.re "zz")) (re.* (str.to.re "AAAA"))) (re.+ (re.union (str.to.re "BBBBB") (str.to.re "CC"))))))) (re.* (re.union (re.union (re.* (re.* (re.union (str.to.re "DDDD") (str.to.re "EEEE")))) (re.* (re.union (re.* (str.to.re "FF")) (re.+ (str.to.re "GGGG"))))) (re.+ (re.* (re.union (re.union (str.to.re "HHHH") (str.to.re "IIIII")) (re.+ (str.to.re "JJJ"))))))))) (re.* (re.union (re.* (re.union (re.* (re.union (re.union (re.union (str.to.re "KKKK") (str.to.re "LLL")) (re.+ (str.to.re "MMM"))) (re.union (re.union (str.to.re "NNN") (str.to.re "OOOOO")) (re.+ (str.to.re "PPPP"))))) (re.union (re.+ (re.+ (re.* (str.to.re "QQQQ")))) (re.* (re.* (re.+ (str.to.re "RR"))))))) (re.union (re.union (re.union (re.* (re.* (re.union (str.to.re "SS") (str.to.re "TT")))) (re.+ (re.+ (re.* (str.to.re "UU"))))) (re.* (re.* (re.union (re.+ (str.to.re "VV")) (re.* (str.to.re "WW")))))) (re.* (re.* (re.union (re.+ (re.union (str.to.re "XXXX") (str.to.re "YYYYY"))) (re.* (re.* (str.to.re "ZZZZ"))))))))))))))))))))
(assert (<= 15 (str.len var0)))
(check-sat)